Pd55PES
1.0
        30.0000000000         0.0000000000         0.0000000000
        0.0000000000         30.0000000000         0.0000000000
        0.0000000000         0.0000000000         30.0000000000
   Pd C O 
   55 1 1
Selective dynamics   
Cartesian
13.37280588	9.84801292	12.507595	F F F
20.15198637	16.62719342	12.507595	F F F
16.62719412	9.84801292	12.507595	F F F
9.84801363	16.62719342	12.507595	F F F
15	11.47520705	10.206395			F F F
15	11.47520705	19.793604           F F F
15	8.28283206	15                  F F F
8.28283277	14.99999929	15          F F F
21.71716723	14.99999929	15			F F F
15	21.71716652	14.99999999         F F F
18.35858397	11.64141603	10.250245   F F F
18.35858397	11.64141603	19.74975399 F F F
11.64141674	18.35858326	10.250245	F F F
11.64141674	18.35858326	19.749754   F F F
11.64141603	11.64141603	10.250245   F F F
11.64141603	11.64141603	19.749754   F F F
18.35858326	18.35858326	10.250245   F F F
18.35858326	18.35858326	19.749754   F F F
13.37280588	9.84801291	17.492407   F F F
20.15198638	16.62719341	17.492407   F F F
16.73750985	13.26249015	12.54279    F F F
9.84801151	13.37280729	12.507595   F F F
16.627192	20.15198779	12.507595   F F F
16.62719412	9.84801292	17.492407   F F F
9.84801363	16.62719342	17.492407	F F F
20.15198849	13.37280729	12.507595   F F F
13.372808	20.15198779	12.507595   F F F
13.26249015	13.26249015	12.54279    F F F
15	11.52498029	15                  F F F
18.52479437	15.0000014	10.206395   F F F
18.52479437	15.00000141	19.793604   F F F
11.47520562	15.00000141	10.20639501 F F F
11.47520563	15.00000141	19.793604   F F F
11.49534898	11.49534898	15          F F F
18.50465172	18.50465172	15          F F F
18.50465102	11.49534898	15          F F F
11.49534828	18.50465172	15          F F F
15	15	10.043675                   F F F
15	15	19.95632599                 F F F
9.84801151	13.37280729	17.492407   F F F
16.627192	20.15198779	17.492407   F F F
16.73750985	13.26249015	17.457211   F F F
13.26248944	16.73751056	12.54279001 F F F
13.26249015	13.26249015	17.457211   F F F
20.15198849	13.37280729	17.49240699 F F F
13.372808	20.15198779	17.492407   F F F
16.73751056	16.73751056	12.54279    F F F
11.52497959	15.00000071	15          F F F
18.47502041	15.00000071	15			F F F
14.99999999	18.52479579	10.206395   F F F
15	18.52479578	19.793604           F F F
15	15	15                          F F F
13.26248944	16.73751057	17.45721101 F F F
16.73751056	16.73751057	17.457211   F F F
15	18.47502112	15                  F F F
10.528094   19.583724   8.572228    F F F
9.972143    20.153577   7.773122    F F F