Pd55PES                                 
   1.00000000000000     
    30.0000000000000000    0.0000000000000000    0.0000000000000000
     0.0000000000000000   30.0000000000000000    0.0000000000000000
     0.0000000000000000    0.0000000000000000   30.0000000000000000
   Pd   C    O 
    55     1     1
Selective dynamics
Direct
  0.4457601960000019  0.3282670973333310  0.4169198333333313   F   F   F
  0.6717328789999968  0.5542397806666699  0.4169198333333313   F   F   F
  0.5542398039999981  0.3282670973333310  0.4169198333333313   F   F   F
  0.3282671210000032  0.5542397806666699  0.4169198333333313   F   F   F
  0.5000000000000000  0.3825069016666660  0.3402131666666648   F   F   F
  0.5000000000000000  0.3825069016666660  0.6597867999999991   F   F   F
  0.5000000000000000  0.2760944019999982  0.5000000000000000   F   F   F
  0.2760944256666633  0.4999999763333349  0.5000000000000000   F   F   F
  0.7239055743333367  0.4999999763333349  0.5000000000000000   F   F   F
  0.5000000000000000  0.7239055506666645  0.4999999996666702   F   F   F
  0.6119527990000009  0.3880472009999991  0.3416748333333359   F   F   F
  0.6119527990000009  0.3880472009999991  0.6583251329999982   F   F   F
  0.3880472246666642  0.6119527753333358  0.3416748333333359   F   F   F
  0.3880472246666642  0.6119527753333358  0.6583251333333351   F   F   F
  0.3880472009999991  0.3880472009999991  0.3416748333333359   F   F   F
  0.3880472009999991  0.3880472009999991  0.6583251333333351   F   F   F
  0.6119527753333358  0.6119527753333358  0.3416748333333359   F   F   F
  0.6119527753333358  0.6119527753333358  0.6583251333333351   F   F   F
  0.4457601960000019  0.3282670970000012  0.5830802333333338   F   F   F
  0.6717328793333337  0.5542397803333330  0.5830802333333338   F   F   F
  0.5579169949999994  0.4420830050000006  0.4180929999999989   F   F   F
  0.3282670503333307  0.4457602430000023  0.4169198333333313   F   F   F
  0.5542397333333327  0.6717329263333340  0.4169198333333313   F   F   F
  0.5542398039999981  0.3282670973333310  0.5830802333333338   F   F   F
  0.3282671210000032  0.5542397806666699  0.5830802333333338   F   F   F
  0.6717329496666693  0.4457602430000023  0.4169198333333313   F   F   F
  0.4457602666666673  0.6717329263333340  0.4169198333333313   F   F   F
  0.4420830050000006  0.4420830050000006  0.4180929999999989   F   F   F
  0.5000000000000000  0.3841660096666644  0.5000000000000000   F   F   F
  0.6174931456666641  0.5000000466666634  0.3402131666666648   F   F   F
  0.6174931456666641  0.5000000470000003  0.6597867999999991   F   F   F
  0.3825068539999990  0.5000000470000003  0.3402131670000017   F   F   F
  0.3825068543333359  0.5000000470000003  0.6597867999999991   F   F   F
  0.3831782993333306  0.3831782993333306  0.5000000000000000   F   F   F
  0.6168217239999976  0.6168217239999976  0.5000000000000000   F   F   F
  0.6168217006666694  0.3831782993333306  0.5000000000000000   F   F   F
  0.3831782760000024  0.6168217239999976  0.5000000000000000   F   F   F
  0.5000000000000000  0.5000000000000000  0.3347891666666669   F   F   F
  0.5000000000000000  0.5000000000000000  0.6652108663333323   F   F   F
  0.3282670503333307  0.4457602430000023  0.5830802333333338   F   F   F
  0.5542397333333327  0.6717329263333340  0.5830802333333338   F   F   F
  0.5579169949999994  0.4420830050000006  0.5819070333333300   F   F   F
  0.4420829813333356  0.5579170186666644  0.4180930003333359   F   F   F
  0.4420830050000006  0.4420830050000006  0.5819070333333300   F   F   F
  0.6717329496666693  0.4457602430000023  0.5830802329999969   F   F   F
  0.4457602666666673  0.6717329263333340  0.5830802333333338   F   F   F
  0.5579170186666644  0.5579170186666644  0.4180929999999989   F   F   F
  0.3841659863333362  0.5000000236666651  0.5000000000000000   F   F   F
  0.6158340136666638  0.5000000236666651  0.5000000000000000   F   F   F
  0.4999999996666702  0.6174931930000014  0.3402131666666648   F   F   F
  0.5000000000000000  0.6174931926666645  0.6597867999999991   F   F   F
  0.5000000000000000  0.5000000000000000  0.5000000000000000   F   F   F
  0.4420829813333356  0.5579170190000013  0.5819070336666670   F   F   F
  0.5579170186666644  0.5579170190000013  0.5819070333333300   F   F   F
  0.5000000000000000  0.6158340373333360  0.5000000000000000   F   F   F
  0.4970098000000007  0.5001802000000026  0.2721508666666637   F   F   F
  0.4965163999999973  0.5002099333333305  0.2345541333333330   F   F   F
 
  0.00000000E+00  0.00000000E+00  0.00000000E+00
  0.00000000E+00  0.00000000E+00  0.00000000E+00
  0.00000000E+00  0.00000000E+00  0.00000000E+00
  0.00000000E+00  0.00000000E+00  0.00000000E+00
  0.00000000E+00  0.00000000E+00  0.00000000E+00
  0.00000000E+00  0.00000000E+00  0.00000000E+00
  0.00000000E+00  0.00000000E+00  0.00000000E+00
  0.00000000E+00  0.00000000E+00  0.00000000E+00
  0.00000000E+00  0.00000000E+00  0.00000000E+00
  0.00000000E+00  0.00000000E+00  0.00000000E+00
  0.00000000E+00  0.00000000E+00  0.00000000E+00
  0.00000000E+00  0.00000000E+00  0.00000000E+00
  0.00000000E+00  0.00000000E+00  0.00000000E+00
  0.00000000E+00  0.00000000E+00  0.00000000E+00
  0.00000000E+00  0.00000000E+00  0.00000000E+00
  0.00000000E+00  0.00000000E+00  0.00000000E+00
  0.00000000E+00  0.00000000E+00  0.00000000E+00
  0.00000000E+00  0.00000000E+00  0.00000000E+00
  0.00000000E+00  0.00000000E+00  0.00000000E+00
  0.00000000E+00  0.00000000E+00  0.00000000E+00
  0.00000000E+00  0.00000000E+00  0.00000000E+00
  0.00000000E+00  0.00000000E+00  0.00000000E+00
  0.00000000E+00  0.00000000E+00  0.00000000E+00
  0.00000000E+00  0.00000000E+00  0.00000000E+00
  0.00000000E+00  0.00000000E+00  0.00000000E+00
  0.00000000E+00  0.00000000E+00  0.00000000E+00
  0.00000000E+00  0.00000000E+00  0.00000000E+00
  0.00000000E+00  0.00000000E+00  0.00000000E+00
  0.00000000E+00  0.00000000E+00  0.00000000E+00
  0.00000000E+00  0.00000000E+00  0.00000000E+00
  0.00000000E+00  0.00000000E+00  0.00000000E+00
  0.00000000E+00  0.00000000E+00  0.00000000E+00
  0.00000000E+00  0.00000000E+00  0.00000000E+00
  0.00000000E+00  0.00000000E+00  0.00000000E+00
  0.00000000E+00  0.00000000E+00  0.00000000E+00
  0.00000000E+00  0.00000000E+00  0.00000000E+00
  0.00000000E+00  0.00000000E+00  0.00000000E+00
  0.00000000E+00  0.00000000E+00  0.00000000E+00
  0.00000000E+00  0.00000000E+00  0.00000000E+00
  0.00000000E+00  0.00000000E+00  0.00000000E+00
  0.00000000E+00  0.00000000E+00  0.00000000E+00
  0.00000000E+00  0.00000000E+00  0.00000000E+00
  0.00000000E+00  0.00000000E+00  0.00000000E+00
  0.00000000E+00  0.00000000E+00  0.00000000E+00
  0.00000000E+00  0.00000000E+00  0.00000000E+00
  0.00000000E+00  0.00000000E+00  0.00000000E+00
  0.00000000E+00  0.00000000E+00  0.00000000E+00
  0.00000000E+00  0.00000000E+00  0.00000000E+00
  0.00000000E+00  0.00000000E+00  0.00000000E+00
  0.00000000E+00  0.00000000E+00  0.00000000E+00
  0.00000000E+00  0.00000000E+00  0.00000000E+00
  0.00000000E+00  0.00000000E+00  0.00000000E+00
  0.00000000E+00  0.00000000E+00  0.00000000E+00
  0.00000000E+00  0.00000000E+00  0.00000000E+00
  0.00000000E+00  0.00000000E+00  0.00000000E+00
  0.00000000E+00  0.00000000E+00  0.00000000E+00
  0.00000000E+00  0.00000000E+00  0.00000000E+00
